
Gurobi 9.1.0 (win64) logging started Sun Dec 13 17:44:23 2020

Changed value of parameter LogFile to logs/iteration18
   Prev:   Default: 
Gurobi Optimizer version 9.1.0 build v9.1.0rc0 (win64)
Thread count: 4 physical cores, 8 logical processors, using up to 8 threads
Optimize a model with 136 rows, 986 columns and 3919 nonzeros
Model fingerprint: 0xda73f7ca
Coefficient statistics:
  Matrix range     [1e+00, 1e+00]
  Objective range  [1e+03, 4e+03]
  Bounds range     [0e+00, 0e+00]
  RHS range        [1e+00, 1e+00]
Presolve removed 10 rows and 10 columns
Presolve time: 0.00s
Presolved: 126 rows, 976 columns, 3907 nonzeros

Iteration    Objective       Primal Inf.    Dual Inf.      Time
       0    4.9471250e+04   9.100000e+01   0.000000e+00      0s
     444    8.4800667e+04   0.000000e+00   0.000000e+00      0s

Solved in 444 iterations and 0.01 seconds
Optimal objective  8.480066667e+04

Solutionx[24] 0.500000 
x[26] 0.464286 
x[27] 0.535714 
x[37] 0.500000 
x[54] 1.000000 
x[66] 1.000000 
x[72] 1.000000 
x[76] 1.000000 
x[77] 1.000000 
x[90] 0.500000 
x[104] 1.000000 
x[118] 1.000000 
x[124] 1.000000 
x[128] 0.500000 
x[129] 0.500000 
x[131] 1.000000 
x[132] 1.000000 
x[134] 1.000000 
x[264] 0.214286 
x[436] 0.214286 
x[579] 0.142857 
x[728] 0.500000 
x[821] 0.500000 
x[905] 0.071429 
x[1222] 0.285714 
x[2863] 0.142857 
x[2864] 0.285714 
x[3092] 0.428571 
x[3183] 0.214286 
x[4039] 0.500000 
x[22568] 0.714286 
x[25735] 0.285714 
x[14145] 0.464286 
x[19984] 0.535714 
x[10496] 0.500000 
x[14218] 0.500000 
x[32577] 0.500000 
x[32072] 0.500000 
x[12864] 1.000000 
x[4664] 1.000000 
x[20827] 0.928571 
x[28007] 0.071429 
x[32760] 0.464286 
x[11289] 0.535714 
x[14661] 1.000000 
x[12247] 0.500000 
x[7216] 1.000000 
x[17131] 1.000000 
x[25678] 0.642857 
x[14101] 0.357143 
x[5712] 0.214286 
x[29630] 0.714286 
x[15923] 0.071429 
x[17081] 1.000000 
x[1306] 0.035714 
x[16358] 0.464286 
x[3967] 0.500000 
x[32331] 1.000000 
x[10365] 0.500000 
x[33271] 0.500000 
x[19011] 0.464286 
x[3135] 0.035714 
x[28795] 0.642857 
x[16232] 0.357143 
x[10437] 1.000000 
x[9000] 0.500000 
x[3458] 0.500000 
x[11860] 0.500000 
x[2342] 0.214286 
x[3104] 0.285714 
x[3163] 0.500000 
x[9102] 0.285714 
x[9665] 0.214286 
x[31815] 1.000000 
x[11790] 1.000000 
x[4645] 0.500000 
x[19558] 1.000000 
x[16997] 0.500000 
x[10877] 0.500000 

Gurobi 9.1.0 (win64) logging started Sun Dec 13 13:25:10 2020

Changed value of parameter LogFile to logs/iteration18
   Prev:   Default: 
Gurobi Optimizer version 9.1.0 build v9.1.0rc0 (win64)
Thread count: 4 physical cores, 8 logical processors, using up to 8 threads
Optimize a model with 136 rows, 986 columns and 3919 nonzeros
Model fingerprint: 0xda73f7ca
Coefficient statistics:
  Matrix range     [1e+00, 1e+00]
  Objective range  [1e+03, 4e+03]
  Bounds range     [0e+00, 0e+00]
  RHS range        [1e+00, 1e+00]
Presolve removed 10 rows and 10 columns
Presolve time: 0.00s
Presolved: 126 rows, 976 columns, 3907 nonzeros

Iteration    Objective       Primal Inf.    Dual Inf.      Time
       0    4.9471250e+04   9.100000e+01   0.000000e+00      0s
     444    8.4800667e+04   0.000000e+00   0.000000e+00      0s

Solved in 444 iterations and 0.01 seconds
Optimal objective  8.480066667e+04

Solutionx[24] 0.500000 
x[26] 0.464286 
x[27] 0.535714 
x[37] 0.500000 
x[54] 1.000000 
x[66] 1.000000 
x[72] 1.000000 
x[76] 1.000000 
x[77] 1.000000 
x[90] 0.500000 
x[104] 1.000000 
x[118] 1.000000 
x[124] 1.000000 
x[128] 0.500000 
x[129] 0.500000 
x[131] 1.000000 
x[132] 1.000000 
x[134] 1.000000 
x[264] 0.214286 
x[436] 0.214286 
x[579] 0.142857 
x[728] 0.500000 
x[821] 0.500000 
x[905] 0.071429 
x[1222] 0.285714 
x[2863] 0.142857 
x[2864] 0.285714 
x[3092] 0.428571 
x[3183] 0.214286 
x[4039] 0.500000 
x[22568] 0.714286 
x[25735] 0.285714 
x[14145] 0.464286 
x[19984] 0.535714 
x[10496] 0.500000 
x[14218] 0.500000 
x[32577] 0.500000 
x[32072] 0.500000 
x[12864] 1.000000 
x[4664] 1.000000 
x[20827] 0.928571 
x[28007] 0.071429 
x[32760] 0.464286 
x[11289] 0.535714 
x[14661] 1.000000 
x[12247] 0.500000 
x[7216] 1.000000 
x[17131] 1.000000 
x[25678] 0.642857 
x[14101] 0.357143 
x[5712] 0.214286 
x[29630] 0.714286 
x[15923] 0.071429 
x[17081] 1.000000 
x[1306] 0.035714 
x[16358] 0.464286 
x[3967] 0.500000 
x[32331] 1.000000 
x[10365] 0.500000 
x[33271] 0.500000 
x[19011] 0.464286 
x[3135] 0.035714 
x[28795] 0.642857 
x[16232] 0.357143 
x[10437] 1.000000 
x[9000] 0.500000 
x[3458] 0.500000 
x[11860] 0.500000 
x[2342] 0.214286 
x[3104] 0.285714 
x[3163] 0.500000 
x[9102] 0.285714 
x[9665] 0.214286 
x[31815] 1.000000 
x[11790] 1.000000 
x[4645] 0.500000 
x[19558] 1.000000 
x[16997] 0.500000 
x[10877] 0.500000 
